!uks pbe nori aug-pc-4 grid5 nofinalgrid verytightscf

%maxcore 1500

%pal nprocs 4 end

%scf
	maxiter 200
end
%elprop
	dipole true
	 polar 1
	 maxiter 200
end

* xyz 0 1
C 0.0000 0.0000 0.6013
C 0.0000 0.0000 -0.6013
H 0.0000 0.0000 1.6644
H 0.0000 0.0000 -1.6644
*
