!uks pbe nori aug-pc-4 grid5 nofinalgrid verytightscf

%maxcore 1500

%pal nprocs 4 end

%scf
	maxiter 200
end
%elprop
	dipole true
	 polar 1
	 maxiter 200
end

* xyz 0 1
C 0.0000000000 0.0000000000 0.5940000000
B 0.0000000000 0.0000000000 -0.7886000000
H 0.0000000000 0.9173000000 1.1687000000
H 0.0000000000 -0.9173000000 1.1687000000
H 0.0000000000 0.0000000000 -1.9586000000
*
