!uks pbe nori aug-pc-4 grid5 nofinalgrid verytightscf

%maxcore 1500

%pal nprocs 4 end

%scf
	maxiter 200
end
%elprop
	dipole true
	 polar 1
	 maxiter 200
end

* xyz 0 2
C -0.0287000000 0.6550000000 0.0000000000
F -0.0287000000 -0.6819000000 0.0000000000
H 0.2150000000 1.1036000000 0.9474000000
H 0.2150000000 1.1036000000 -0.9474000000
*
