!uks pbe nori aug-pc-4 grid5 nofinalgrid verytightscf

%maxcore 1500

%pal nprocs 4 end

%scf
	maxiter 200
end
%elprop
	dipole true
	 polar 1
	 maxiter 200
end

* xyz 0 2
C 0.0000 0.0000 0.0000
H 1.0790 0.0000 0.0000
H -0.5395 -0.9344 0.0000
H -0.5395 0.9344 0.0000
*
