!uks pbe nori aug-pc-4 grid5 nofinalgrid verytightscf

%maxcore 1500

%pal nprocs 4 end

%scf
	maxiter 200
end
%elprop
	dipole true
	 polar 1
	 maxiter 200
end

* xyz 0 1
C -0.0190572749 -0.6845195756 -0.0000000839
B -0.0207972952 0.8729523951 -0.0000000656
H 1.0512614815 -0.9395660726 0.0000010826
H -0.4362896177 -1.1431007759 0.8927422542
H -0.4362878975 -1.1431009662 -0.8927431359
H 0.0151838060 1.4835176231 -1.0228906497
H 0.0151867978 1.4835173722 1.0228905983
*
