!uks pbe nori aug-pc-4 grid5 nofinalgrid verytightscf

%maxcore 1500

%pal nprocs 4 end

%scf
	maxiter 200
end
%elprop
	dipole true
	 polar 1
	 maxiter 200
end

* xyz 0 2
F -1.0211 -0.4211 0.0000
C 0.0000 0.4249 0.0000
O 1.1487 0.1550 0.0000
*
