!uks pbe nori aug-pc-4 grid5 nofinalgrid verytightscf

%maxcore 1500

%pal nprocs 4 end

%scf
	maxiter 200
end
%elprop
	dipole true
	 polar 1
	 maxiter 200
end

* xyz 0 2
H 0.000000 0.000000 0.000000
F 0.000000 0.000000 0.927729
O 0.169084 0.000000 -1.803099
H 1.103782 0.000000 -2.068116
*
