!uks pbe nori aug-pc-4 grid5 nofinalgrid verytightscf

%maxcore 1500

%pal nprocs 4 end

%scf
	maxiter 200
end
%elprop
	dipole true
	 polar 1
	 maxiter 200
end

* xyz 0 1
F -0.9545 -0.6093 0.0000
N 0.0000 0.5633 0.0000
O 1.0738 0.1926 0.0000
*
