!uks pbe nori aug-pc-4 grid5 nofinalgrid verytightscf

%maxcore 1500

%pal nprocs 4 end

%scf
	maxiter 200
end
%elprop
	dipole true
	 polar 1
	 maxiter 200
end

* xyz 0 2
Li 0.000000 0.000000 0.000000
O 0.000000 0.000000 1.876166
H 0.835500 0.000000 2.357191
H -0.587326 0.594229 2.357191
*
