!uks pbe nori aug-pc-4 grid5 nofinalgrid verytightscf

%maxcore 1500

%pal nprocs 4 end

%scf
	maxiter 200
end
%elprop
	dipole true
	 polar 1
	 maxiter 200
end

* xyz 0 1
C 0.0000000000 0.0000000000 -0.0942000000
C 0.0000000000 0.0000000000 -1.2922000000
F 0.0000000000 0.0000000000 1.1848000000
H 0.0000000000 0.0000000000 -2.3452000000
*
