!uks pbe nori aug-pc-4 grid5 nofinalgrid verytightscf

%maxcore 1500

%pal nprocs 4 end

%scf
	maxiter 200
end
%elprop
	dipole true
	 polar 1
	 maxiter 200
end

* xyz 0 2
C 0.0000 0.0000 0.0000
H 1.0800 0.0000 0.0000
O -0.5899 1.0427 0.0000
*
