!uks pbe nori aug-pc-4 grid5 nofinalgrid verytightscf

%maxcore 1500

%pal nprocs 4 end

%scf
	maxiter 200
end
%elprop
	dipole true
	 polar 1
	 maxiter 200
end

* xyz 0 1
C 0.0000 0.4199 0.0000
O -1.0543 -0.4121 0.0000
O 1.1506 0.0721 0.0000
H -0.0799 1.5140 0.0000
H -0.6905 -1.3134 0.0000
*
