!uks pbe nori aug-pc-4 grid5 nofinalgrid verytightscf

%maxcore 1500

%pal nprocs 4 end

%scf
	maxiter 200
end
%elprop
	dipole true
	 polar 1
	 maxiter 200
end

* xyz 0 1
H 0.0000 -0.9718 0.9211
N 0.0000 0.0648 0.5834
O 0.0000 0.0648 -0.6256
*
