!uks pbe nori aug-pc-4 grid5 nofinalgrid verytightscf

%maxcore 1500

%pal nprocs 4 end

%scf
	maxiter 200
end
%elprop
	dipole true
	 polar 1
	 maxiter 200
end

* xyz 0 1
N 1.0375899124 0.1438382012 0.0000000000
S -0.5437813358 -0.0126986493 0.0000000000
H 1.4373719861 -0.8036890193 0.0000000000
*
