!uks pbe nori aug-pc-4 grid5 nofinalgrid verytightscf

%maxcore 1500

%pal nprocs 4 end

%scf
	maxiter 200
end
%elprop
	dipole true
	 polar 1
	 maxiter 200
end

* xyz 0 2
O 0.0553 -0.6132 0.0000
O 0.0553 0.7198 0.0000
H -0.8853 -0.8528 0.0000
*
