!uks pbe nori aug-pc-4 grid5 nofinalgrid verytightscf

%maxcore 1500

%pal nprocs 4 end

%scf
	maxiter 200
end
%elprop
	dipole true
	 polar 1
	 maxiter 200
end

* xyz 0 1
N 0.0000 0.7230 -0.1123
N 0.0000 -0.7230 -0.1123
H -0.4470 1.0031 0.7562
H 0.4470 -1.0031 0.7562
H 0.9663 1.0031 0.0301
H -0.9663 -1.0031 0.0301
*
