!uks pbe nori aug-pc-4 grid5 nofinalgrid verytightscf

%maxcore 1500

%pal nprocs 4 end

%scf
	maxiter 200
end
%elprop
	dipole true
	 polar 1
	 maxiter 200
end

* xyz 0 1
N -0.0094 0.7040 0.0000
O -0.0094 -0.7490 0.0000
H -0.9525 -0.9386 0.0000
H 0.5469 1.0012 0.7965
H 0.5469 1.0012 -0.7965
*
