!uks pbe nori aug-pc-4 grid5 nofinalgrid verytightscf

%maxcore 1500

%pal nprocs 4 end

%scf
	maxiter 200
end
%elprop
	dipole true
	 polar 1
	 maxiter 200
end

* xyz 0 1
N 0.0000 0.0000 0.0000
H 0.0000 -0.9377 -0.3816
H 0.8121 0.4689 -0.3816
H -0.8121 0.4689 -0.3816
*
