!uks pbe nori aug-pc-4 grid5 nofinalgrid verytightscf

%maxcore 1500

%pal nprocs 4 end

%scf
	maxiter 200
end
%elprop
	dipole true
	 polar 1
	 maxiter 200
end

* xyz 0 1
N 0.0000000000 0.0000000000 -0.5344777797
H -0.9458001927 0.0000000000 -0.9350779673
H 0.4729000069 -0.8190998435 -0.9350776619
H 0.4729000069 0.8190998435 -0.9350776619
O 0.0000000000 0.0000000000 0.8183222203
*
