!uks pbe nori aug-pc-4 grid5 nofinalgrid verytightscf

%maxcore 1500

%pal nprocs 4 end

%scf
	maxiter 200
end
%elprop
	dipole true
	 polar 1
	 maxiter 200
end

* xyz 0 1
Cl -0.5312 -0.9298 0.0000
N 0.0000 0.9724 0.0000
O 1.1287 1.1250 0.0000
*
