!uks pbe nori aug-pc-4 grid5 nofinalgrid verytightscf

%maxcore 1500

%pal nprocs 4 end

%scf
	maxiter 200
end
%elprop
	dipole true
	 polar 1
	 maxiter 200
end

* xyz 0 1
O 0.0000 0.0000 0.7788
Cl 0.0000 1.3966 -0.1832
Cl 0.0000 -1.3966 -0.1832
*
