!uks pbe nori aug-pc-4 grid5 nofinalgrid verytightscf

%maxcore 1500

%pal nprocs 4 end

%scf
	maxiter 200
end
%elprop
	dipole true
	 polar 1
	 maxiter 200
end

* xyz 0 1
P 0.0000 0.0000 0.0000
H 0.0000 -1.1932 -0.7717
H 1.0333 0.5966 -0.7717
H -1.0333 0.5966 -0.7717
*
