!uks pbe nori aug-pc-4 grid5 nofinalgrid verytightscf

%maxcore 1500

%pal nprocs 4 end

%scf
	maxiter 200
end
%elprop
	dipole true
	 polar 1
	 maxiter 200
end

* xyz 0 1
S 0.0000 1.0282 -0.0552
S 0.0000 -1.0282 -0.0552
H 0.9425 1.2122 0.8824
H -0.9425 -1.2122 0.8824
*
