!uks pbe nori aug-pc-4 grid5 nofinalgrid verytightscf

%maxcore 1500

%pal nprocs 4 end

%scf
	maxiter 200
end
%elprop
	dipole true
	 polar 1
	 maxiter 200
end

* xyz 0 1
S 0.0000 0.0000 0.8544
Cl 0.0000 1.5740 -0.4021
Cl 0.0000 -1.5740 -0.4021
*
