!uks pbe nori aug-pc-4 grid5 nofinalgrid verytightscf

%maxcore 1500

%pal nprocs 4 end

%scf
	maxiter 200
end
%elprop
	dipole true
	 polar 1
	 maxiter 200
end

* xyz 0 2
Si 0.0000 0.0000 0.0819
H 0.0000 1.3928 -0.3820
H 1.2062 -0.6964 -0.3820
H -1.2062 -0.6964 -0.3820
*
