!uks pbe nori aug-pc-4 grid5 nofinalgrid verytightscf

%maxcore 1500

%pal nprocs 4 end

%scf
	maxiter 200
end
%elprop
	dipole true
	 polar 1
	 maxiter 200
end

* xyz 0 1
Si 0.0000 0.0000 0.4986
F 0.0000 0.0000 -1.0959
H 0.0000 1.4017 0.9613
H -1.2139 -0.7008 0.9613
H 1.2139 -0.7008 0.9613
*
