!uks pbe nori aug-pc-4 grid5 nofinalgrid verytightscf

%maxcore 6000

%pal nprocs 4 end

%scf
	efield 0.0, 0.0, 0.001
	maxiter 200
end

* xyz 0 1
Li 1.4157454937 -0.6164252897 0.0000000000
C -0.6780148225 -0.3855159545 0.0000000000
N -0.0211306712 0.6069412443 0.0000000000
*
