!uks pbe nori aug-pc-4 grid5 nofinalgrid verytightscf

%maxcore 6000

%pal nprocs 4 end

%scf
	efield 0.0, 0.0, 0.0
	maxiter 200
end

* xyz 0 1
C 1.0848000000 0.6433000000 0.0000000000
N 0.0000000000 1.1328000000 0.0000000000
Na -0.5917000000 -1.0717000000 0.0000000000
*
