!uks pbe nori aug-pc-4 grid5 nofinalgrid verytightscf

%maxcore 6000

%pal nprocs 4 end

%scf
	efield 0.0, -0.001, 0.0
	maxiter 200
end

* xyz 0 2
H 0 0 0
O 0 0 0.9697
*
