!uks pbe nori aug-pc-4 grid5 nofinalgrid verytightscf

%maxcore 6000

%pal nprocs 4 end

%scf
	efield -0.001, 0.0, 0.0
	maxiter 200
end

* xyz 0 2
S 0.0000 0.0000 0.0000
Cl 0.0000 0.0000 1.9753
*
